
Route #1: 24 42 51 46 41 25 47 16 
Route #2: 43 23 49 7 52 5 50 39 29 35 
Route #3: 9 45 26 38 22 44 13 20 
Route #4: 4 28 27 37 48 40 31 
Route #5: 30 34 32 33 21 53 3 15 18 
Route #6: 11 2 14 12 8 19 36 
Route #7: 10 1 17 6 
cost 1624.45
total time is 5.7